c ---- [ banner ] ------------------------------------------------------------
c
c Kissat SAT Solver
c 
c Copyright (c) 2021-2023 Armin Biere University of Freiburg
c Copyright (c) 2019-2021 Armin Biere Johannes Kepler University Linz
c 
c Version 3.1.1 unknown
c gcc (Ubuntu 9.4.0-1ubuntu1~20.04.2) 9.4.0 -W -Wall -O3 -DNDEBUG
c Mon Feb 26 18:18:52 CET 2024 Linux OptiPlex-7080 5.15.0-88-generic x86_64
c
c ---- [ parsing ] -----------------------------------------------------------
c
c opened and reading DIMACS file:
c
c   tseitin-d6-12.cnf
c
c parsed 'p cnf 36 384' header
c closing input after reading 8535 bytes (8 KB)
c finished parsing after 0.00 seconds
c
c ---- [ solving ] -----------------------------------------------------------
c
c  seconds switched conflicts irredundant variables
c         MB reductions redundant   trail  remaining
c          level restarts   binary     glue
c
c *  0.00  4 0 0 0  0   0   0   0 384 0% 0 36 97%
c {  0.00  4 0 0 0  0   0   0   0 384 0% 0 36 97%
c -  0.00  4 20 0 1 111 1002 138   0 384 88% 10 36 97%
c }  0.00  4 20 1 1 111 1002 138   0 384 88% 10 36 97%
c [  0.00  4 0 1 1 111 1002 138   0 384 0% 0 36 97%
c B  0.00  4 0 1 1 111 1002 138   0 384 0% 0 36 97%
c -  0.01  4 20 1 2 111 2003 188   0 384 91% 12 36 97%
c W  0.01  4 20 1 2 111 2003 188   0 384 91% 12 36 97%
c ]  0.01  4 20 2 2 111 2180 270   0 384 91% 12 36 97%
c {  0.01  4 20 2 2 111 2180 270   0 384 88% 10 36 97%
c }  0.02  4 20 3 2 367 3181 957   0 384 84% 12 36 97%
c [  0.02  4 20 3 2 367 3181 957   0 384 91% 12 36 97%
c ^  0.02  4 20 3 2 367 3369 1063   0 384 88% 12 36 97%
c -  0.02  4 20 3 3 367 3420 287   0 384 88% 12 36 97%
c I  0.02  4 19 3 3 367 4263 726   0 384 82% 11 36 97%
c -  0.03  4 19 3 4 367 5154 315   0 384 81% 11 36 97%
c ]  0.03  4 19 4 4 368 5574 505   0 384 80% 11 36 97%
c {  0.03  4 20 4 4 368 5574 505   0 384 84% 12 36 97%
c ^  0.03  4 19 4 4 368 6738 1076   0 384 82% 12 36 97%
c -  0.03  4 19 4 5 433 7154 341   0 384 82% 12 36 97%
c
c  seconds  switched conflicts   irredundant variables
c         MB reductions   redundant     trail   remaining
c          level restarts      binary       glue
c
c }  0.03  4 19 5 5 433 7927 727   0 384 82% 12 36 97%
c [  0.03  4 19 5 5 433 7927 727   0 384 80% 11 36 97%
c B  0.04  4 19 5 5 433 8036 776   0 384 80% 11 36 97%
c -  0.04  4 19 5 6 433 9392 390   0 384 78% 11 36 97%
c ]  0.04  4 18 6 6 434 10023 762   0 384 78% 11 36 97%
c {  0.04  4 19 6 6 434 10023 762   0 384 82% 12 36 97%
c v  0.05  4 19 6 6 748 11789 1760   0 384 81% 12 36 97%
c -  0.05  5 19 6 7 750 11841 483   0 384 81% 12 36 97%
c ^  0.06  5 19 6 7 750 14040 1696   0 384 78% 12 36 97%
c }  0.06  5 19 7 7 754 14093 1726   0 384 78% 12 36 97%
c [  0.06  5 18 7 7 754 14093 1726   0 384 78% 11 36 97%
c W  0.06  5 18 7 7 754 14093 1726   0 384 78% 11 36 97%
c -  0.06  5 19 7 8 754 14488 514   0 384 78% 11 36 97%
c -  0.07  5 18 7 9 755 17317 631   0 384 75% 11 36 97%
c -  0.07  5 17 7 10 756 20319 891   0 384 74% 11 36 97%
c O  0.08  5 17 7 10 757 21621 1594   0 384 74% 11 36 97%
c ]  0.08  5 17 8 10 757 21624 1596   0 384 74% 11 36 97%
c {  0.08  5 19 8 10 757 21624 1596   0 384 78% 12 36 97%
c -  0.08  5 19 8 11 839 23481 945   0 384 77% 12 36 97%
c ^  0.09  5 18 8 11 839 25803 2315   0 384 77% 12 36 97%
c
c  seconds  switched   conflicts   irredundant variables
c         MB  reductions    redundant     trail   remaining
c          level  restarts       binary       glue
c
c -  0.09  5 18 8 12 973 26799 944   0 384 77% 12 36 97%
c }  0.09  5 18 9 12 973 27783 1454   0 384 77% 11 36 97%
c [  0.09  5 17 9 12 973 27783 1454   0 384 74% 11 36 97%
c -  0.11  5 17 9 13 974 30264 971   0 384 73% 11 36 97%
c B  0.11  5 17 9 13 975 31383 1558   0 384 74% 11 36 97%
c ]  0.11  5 17 10 13 975 33459 2901   0 384 73% 11 36 97%
c {  0.11  5 18 10 13 975 33459 2901   0 384 77% 11 36 97%
c -  0.11  5 18 10 14 975 33871 927   0 384 77% 11 36 97%
c -  0.13  5 18 10 15 1373 37614 889   0 384 78% 12 36 97%
c -  0.14  5 19 10 16 1663 41486 1032   0 384 79% 11 36 97%
c }  0.14  5 19 11 16 1663 42088 1366   0 384 79% 11 36 97%
c [  0.14  5 17 11 16 1663 42088 1366   0 384 73% 11 36 97%
c ^  0.14  5 17 11 16 1663 42519 1617   0 384 73% 11 36 97%
c W  0.14  5 17 11 16 1663 43607 2176   0 384 74% 11 36 97%
c -  0.16  5 17 11 17 1664 45486 1233   0 384 74% 11 36 97%
c -  0.16  5 17 11 18 1666 49610 1370   0 384 73% 11 36 97%
c ]  0.17  5 17 12 18 1667 52807 3143   0 384 73% 11 36 97%
c {  0.17  5 19 12 18 1667 52807 3143   0 384 79% 11 36 97%
c -  0.17  5 18 12 19 1667 53853 1460   0 384 78% 11 36 97%
c -  0.19  5 18 12 20 1961 58211 1412   0 384 79% 11 36 97%
c
c  seconds   switched    conflicts    irredundant variables
c         MB   reductions     redundant      trail   remaining
c          level    restarts        binary       glue
c
c -  0.20  5 18 12 21 1961 62686 1287   0 384 79% 11 36 97%
c }  0.20  5 18 13 21 1961 64289 2072   0 384 79% 11 36 97%
c [  0.20  5 17 13 21 1961 64289 2072   0 384 73% 11 36 97%
c I  0.20  5 17 13 21 1961 64289 2072   0 384 73% 11 36 97%
c !  0.20  5 17 13 21 1961 64644 2249   0 384 73% 11 36 97%
c v  0.21  5 17 13 21 1961 65386 2690   0 384 73% 11 36 97%
c -  0.22  5 17 13 22 1962 67270 1492   0 384 73% 11 36 97%
c -  0.23  5 17 13 23 1964 71960 1752   0 384 72% 11 36 97%
c ]  0.23  5 17 14 23 1964 73016 2369   0 384 72% 11 36 97%
c {  0.23  5 18 14 23 1964 73016 2369   0 384 79% 11 36 97%
c -  0.24  5 18 14 24 2828 76755 1623   0 384 79% 11 36 97%
c -  0.27  5 19 14 25 4054 81655 1332   0 384 79% 11 36 97%
c -  0.28  5 19 14 26 4231 86655 1327   0 384 79% 11 36 97%
c }  0.28  5 18 15 26 4231 87731 2141   0 384 79% 11 36 97%
c [  0.28  5 17 15 26 4231 87731 2141   0 384 72% 11 36 97%
c B  0.28  5 17 15 26 4231 87731 2141   0 384 72% 11 36 97%
c v  0.29  5 17 15 26 4232 89983 3396   0 384 72% 11 36 97%
c -  0.30  5 17 15 27 4233 91755 1594   0 384 72% 11 36 97%
c -  0.31  5 17 15 28 4235 96951 1546   0 384 71% 11 36 97%
c -  0.32  5 17 15 29 4237 102245 1483   0 384 71% 11 36 97%
c
c  seconds   switched    conflicts     irredundant variables
c         MB   reductions      redundant      trail   remaining
c          level    restarts         binary       glue
c
c -  0.34  6 17 15 30 4237 107632 1643   0 384 71% 11 36 97%
c W  0.34  6 17 15 30 4237 108645 2218   0 384 71% 11 36 97%
c ]  0.35  6 17 16 30 4239 111363 3781   0 384 71% 11 36 97%
c {  0.35  6 18 16 30 4239 111363 3781   0 384 79% 11 36 97%
c -  0.35  6 18 16 31 4700 113109 1533   0 384 78% 11 36 97%
c -  0.37  6 18 16 32 5212 118676 1543   0 384 78% 11 36 97%
c v  0.37  6 18 16 32 5212 118992 1692   0 384 78% 11 36 97%
c -  0.39  6 19 16 33 5995 124332 1490   0 384 78% 11 36 97%
c }  0.40  6 19 17 33 6048 129700 4164   0 384 79% 11 36 97%
c [  0.40  6 17 17 33 6048 129700 4164   0 384 71% 11 36 97%
c -  0.40  6 17 17 34 6048 130078 1559   0 384 71% 11 36 97%
c O  0.41  6 17 17 34 6049 132872 3063   0 384 71% 11 36 97%
c v  0.42  6 17 17 34 6050 135196 4385   0 384 71% 11 36 97%
c -  0.43  6 17 17 35 6050 135908 1845   0 384 71% 11 36 97%
c -  0.44  6 17 17 36 6053 141825 1807   0 384 71% 11 36 97%
c -  0.45  6 17 17 37 6054 147826 1984   0 384 71% 11 36 97%
c v  0.46  6 16 17 37 6055 152550 4736   0 384 71% 11 36 97%
c ]  0.47  6 16 18 37 6055 152550 4736   0 384 71% 11 36 97%
c {  0.47  6 19 18 37 6055 152550 4736   0 384 79% 11 36 97%
c -  0.48  6 18 18 38 6198 153911 2468   0 384 78% 11 36 97%
c
c  seconds   switched    conflicts     irredundant variables
c         MB   reductions      redundant      trail   remaining
c          level    restarts         binary       glue
c
c -  0.49  6 18 18 39 6198 160075 2961   0 384 77% 11 36 97%
c -  0.51  6 18 18 40 6198 166321 3355   0 384 76% 11 36 97%
c v  0.53  7 17 18 40 6198 171069 6568   0 384 75% 11 36 97%
c -  0.54  6 17 18 41 6299 172648 3364   0 384 75% 11 36 97%
c }  0.55  6 17 19 41 6299 174896 4724   0 384 75% 11 36 97%
c [  0.55  6 16 19 41 6299 174896 4724   0 384 71% 11 36 97%
c B  0.55  6 16 19 41 6299 174896 4724   0 384 71% 11 36 97%
c -  0.56  6 16 19 42 6301 179053 2804   0 384 70% 11 36 97%
c -  0.57  6 16 19 43 6303 185533 2311   0 384 70% 11 36 97%
c v  0.59  6 16 19 43 6305 190766 5647   0 384 70% 11 36 97%
c -  0.60  6 16 19 44 6305 192090 2138   0 384 70% 11 36 97%
c -  0.61  6 16 19 45 6307 198723 2137   0 384 70% 11 36 97%
c -  0.63  6 16 19 46 6310 205433 2284   0 384 70% 11 36 97%
c W  0.63  6 16 19 46 6311 206347 2777   0 384 70% 11 36 97%
c ]  0.63  6 16 20 46 6311 207786 3583   0 384 70% 11 36 97%
c {  0.63  6 17 20 46 6311 207786 3583   0 384 75% 11 36 97%
c v  0.65  6 17 20 46 7175 211658 5606   0 384 75% 11 36 97%
c -  0.66  6 17 20 47 7333 212217 2237   0 384 75% 11 36 97%
c -  0.69  6 18 20 48 9293 219072 2085   0 384 75% 11 36 97%
c -  0.71  6 18 20 49 10479 226000 1910   0 384 75% 11 36 97%
c
c  seconds   switched     conflicts     irredundant variables
c         MB   reductions       redundant      trail   remaining
c          level    restarts          binary       glue
c
c -  0.72  6 18 20 50 10479 233002 1767   0 384 75% 11 36 97%
c v  0.73  6 18 20 50 10479 233754 2128   0 384 75% 11 36 97%
c }  0.74  6 18 21 50 10592 234527 2504   0 384 75% 11 36 97%
c [  0.74  6 16 21 50 10592 234527 2504   0 384 70% 11 36 97%
c -  0.75  6 16 21 51 10594 240074 1951   0 384 70% 11 36 97%
c I  0.75  6 16 21 51 10594 241698 2762   0 384 70% 11 36 97%
c -  0.76  6 16 21 52 10597 247217 2209   0 384 70% 11 36 97%
c -  0.78  6 16 21 53 10598 254429 2753   0 384 69% 11 36 97%
c v  0.79  6 16 21 53 10599 257070 4189   0 384 69% 11 36 97%
c -  0.81  6 16 21 54 10601 261710 2674   0 384 69% 11 36 97%
c -  0.82  6 16 21 55 10605 269060 2526   0 384 69% 11 36 97%
c ]  0.84  6 16 22 55 10606 275220 6493   0 384 69% 11 36 97%
c {  0.84  6 18 22 55 10606 275220 6493   0 384 75% 11 36 97%
c -  0.85  6 18 22 56 10885 276479 2764   0 384 75% 11 36 97%
c u  0.86  6 18 22 56 10920 281618 5993   0 384 75% 11 36 97%
c v  0.87  6 18 22 56 10920 281618 5993   0 384 75% 11 36 97%
c -  0.88  6 18 22 57 11006 283965 2900   0 384 75% 11 36 97%
c -  0.91  6 17 22 58 11112 291515 3553   0 384 74% 11 36 97%
c -  0.93  6 17 22 59 11131 299130 3882   0 384 74% 11 36 97%
c }  0.96  7 17 23 59 11131 306738 9374   0 384 73% 11 36 97%
c
c  seconds   switched     conflicts     irredundant variables
c         MB   reductions       redundant      trail   remaining
c          level    restarts          binary       glue
c
c [  0.96  7 16 23 59 11131 306738 9374   0 384 69% 11 36 97%
c B  0.96  7 16 23 59 11131 306738 9374   0 384 69% 11 36 97%
c -  0.96  6 16 23 60 11131 306813 3659   0 384 69% 11 36 97%
c v  0.97  6 16 23 60 11131 307407 3986   0 384 69% 11 36 97%
c -  0.99  6 16 23 61 11134 314560 3218   0 384 69% 11 36 97%
c -  1.01  6 16 23 62 11137 322371 2909   0 384 68% 11 36 97%
c -  1.03  6 16 23 63 11139 330247 3412   0 384 68% 11 36 97%
c -  1.06  6 16 23 64 11143 338186 3707   0 384 68% 11 36 97%
c -  1.08  6 16 23 65 11144 346188 3972   0 384 68% 11 36 97%
c W  1.09  6 16 23 65 11145 350449 6199   0 384 68% 11 36 97%
c -  1.10  6 16 23 66 11145 354252 3703   0 384 68% 11 36 97%
c ]  1.11  6 16 24 66 11145 359002 6252   0 384 68% 11 36 97%
c {  1.11  6 17 24 66 11145 359002 6252   0 384 73% 11 36 97%
c -  1.13  6 17 24 67 11685 362378 3022   0 384 73% 11 36 97%
c v  1.14  6 17 24 67 11748 362755 3207   0 384 73% 11 36 97%
c -  1.17  6 17 24 68 13092 370564 2741   0 384 73% 11 36 97%
c -  1.19  6 17 24 69 14010 378810 2507   0 384 73% 11 36 97%
c -  1.21  6 17 24 70 14010 387117 2491   0 384 73% 11 36 97%
c v  1.24  6 17 24 70 14836 392330 5127   0 384 73% 11 36 97%
c -  1.25  6 18 24 71 15240 395485 2566   0 384 73% 12 36 97%
c
c  seconds   switched     conflicts     irredundant variables
c         MB   reductions       redundant      trail   remaining
c          level    restarts          binary       glue
c
c }  1.26  6 18 25 71 15240 395681 2658   0 384 73% 12 36 97%
c [  1.26  6 16 25 71 15240 395681 2658   0 384 68% 11 36 97%
c O  1.26  6 16 25 71 15241 398612 4244   0 384 68% 11 36 97%
c -  1.27  6 16 25 72 15243 403912 3193   0 384 68% 11 36 97%
c -  1.30  6 16 25 73 15246 412400 3899   0 384 69% 11 36 97%
c -  1.32  6 16 25 74 15249 420947 4613   0 384 68% 10 36 97%
c v  1.33  6 16 25 74 15249 423192 6140   0 384 68% 10 36 97%
c -  1.35  7 15 25 75 15253 429550 4831   0 384 68% 10 36 97%
c ]  1.38  6 15 26 75 15254 436316 9951   0 384 68% 10 36 97%
c {  1.38  6 18 26 75 15254 436316 9951   0 384 73% 12 36 97%
c -  1.38  6 17 26 76 15254 438211 5245   0 384 73% 11 36 97%
c -  1.42  7 17 26 77 15943 446929 5345   0 384 72% 11 36 97%
c v  1.46  7 17 26 77 15943 455345 11893   0 384 72% 11 36 97%
c -  1.47  6 17 26 78 16000 455705 5283   0 384 72% 11 36 97%
c -  1.51  6 17 26 79 17550 464538 4194   0 384 72% 12 36 97%
c -  1.53  6 17 26 80 17776 473428 4167   0 384 72% 11 36 97%
c }  1.54  6 17 27 80 17776 478534 7389   0 384 72% 11 36 97%
c [  1.54  6 15 27 80 17776 478534 7389   0 384 68% 10 36 97%
c B  1.54  6 15 27 80 17776 478534 7389   0 384 68% 10 36 97%
c -  1.55  7 15 27 81 17778 482374 4953   0 384 68% 10 36 97%
c
c  seconds   switched     conflicts     irredundant variables
c         MB   reductions       redundant      trail   remaining
c          level    restarts          binary       glue
c
c v  1.58  7 15 27 81 17781 488800 8764   0 384 68% 10 36 97%
c -  1.59  6 15 27 82 17781 491375 4805   0 384 68% 10 36 97%
c -  1.62  6 15 27 83 17785 500431 5014   0 384 67% 10 36 97%
c -  1.65  6 15 27 84 17789 509544 5360   0 384 67% 10 36 97%
c -  1.68  7 15 27 85 17790 518709 5692   0 384 67% 10 36 97%
c ]  1.69  7 15 28 85 17790 523054 8749   0 384 67% 10 36 97%
c {  1.69  7 17 28 85 17790 523054 8749   0 384 72% 11 36 97%
c u  1.70  7 17 28 85 17790 523562 9069   0 384 72% 11 36 97%
c v  1.70  7 17 28 85 17790 523562 9069   0 384 72% 11 36 97%
c -  1.73  6 17 28 86 18230 527929 5363   0 384 72% 11 36 97%
c -  1.76  7 17 28 87 19190 537204 5148   0 384 72% 11 36 97%
c -  1.81  6 17 28 88 20408 546532 4907   0 384 72% 12 36 97%
c -  1.83  6 17 28 89 20408 555912 4997   0 384 72% 11 36 97%
c u  1.85  6 17 28 89 20408 559643 7295   0 384 72% 11 36 97%
c -  1.88  7 17 28 90 21237 565346 4877   0 384 72% 11 36 97%
c }  1.91  6 17 29 90 22256 571192 7814   0 384 72% 12 36 97%
c [  1.91  6 15 29 90 22256 571192 7814   0 384 67% 10 36 97%
c W  1.91  6 15 29 90 22256 571192 7814   0 384 67% 10 36 97%
c -  1.92  6 15 29 91 22258 574834 4343   0 384 67% 10 36 97%
c -  1.95  7 15 29 92 22262 584374 3817   0 384 67% 10 36 97%
c
c  seconds   switched     conflicts     irredundant variables
c         MB   reductions       redundant      trail   remaining
c          level    restarts          binary       glue
c
c -  1.98  7 15 29 93 22265 593966 4135   0 384 67% 11 36 97%
c v  1.99  7 15 29 93 22266 597051 6029   0 384 67% 11 36 97%
c -  2.02  6 15 29 94 22269 603609 4780   0 384 67% 10 36 97%
c -  2.05  7 15 29 95 22270 613305 4970   0 384 67% 10 36 97%
c -  2.09  6 15 29 96 22273 623053 4877   0 384 67% 10 36 97%
c ]  2.10  6 15 30 96 22276 627963 7927   0 384 67% 10 36 97%
c {  2.10  6 17 30 96 22276 627963 7927   0 384 72% 12 36 97%
c -  2.12  6 17 30 97 22825 632852 4954   0 384 72% 12 36 97%
c u  2.14  7 17 30 97 23338 635799 6395   0 384 72% 12 36 97%
c v  2.14  7 17 30 97 23338 635799 6395   0 384 72% 12 36 97%
c -  2.17  7 17 30 98 23734 642700 5320   0 384 72% 12 36 97%
c -  2.20  6 17 30 99 23734 652600 5736   0 384 71% 11 36 97%
c -  2.24  7 16 30 100 23734 662549 6362   0 384 70% 11 36 97%
c -  2.28  7 16 30 101 23734 672549 6943   0 384 70% 11 36 97%
c v  2.30  7 16 30 101 23734 675888 9464   0 384 70% 11 36 97%
c }  2.35  7 16 31 101 24878 682399 12828   0 384 70% 11 36 97%
c [  2.35  7 15 31 101 24878 682399 12828   0 384 67% 10 36 97%
c I  2.35  7 15 31 101 24878 682399 12828   0 384 67% 10 36 97%
c -  2.35  7 15 31 102 24878 682599 5818   0 384 67% 10 36 97%
c -  2.38  7 15 31 103 24883 692698 5001   0 384 67% 10 36 97%
c
c  seconds   switched      conflicts     irredundant variables
c         MB   reductions        redundant      trail   remaining
c          level     restarts          binary       glue
c
c -  2.42  6 15 31 104 24886 702846 5472   0 384 67% 11 36 97%
c -  2.46  7 15 31 105 24891 713046 5576   0 384 66% 11 36 97%
c u  2.47  7 15 31 105 24891 717332 8547   0 384 66% 11 36 97%
c v  2.48  7 15 31 105 24891 717332 8547   0 384 66% 11 36 97%
c -  2.50  7 15 31 106 24892 723292 5103   0 384 66% 11 36 97%
c -  2.54  7 15 31 107 24895 733587 4912   0 384 66% 11 36 97%
c ]  2.56  7 15 32 107 24898 741046 9703   0 384 66% 11 36 97%
c {  2.56  7 16 32 107 24898 741046 9703   0 384 70% 11 36 97%
c -  2.57  6 16 32 108 25083 743931 4989   0 384 70% 11 36 97%
c -  2.60  7 16 32 109 25083 754324 4978   0 384 70% 11 36 97%
c u  2.62  7 16 32 109 25083 760129 9480   0 384 70% 11 36 97%
c v  2.63  7 16 32 109 25083 760129 9480   0 384 70% 11 36 97%
c -  2.66  7 16 32 110 25897 764766 5098   0 384 70% 11 36 97%
c -  2.71  6 16 32 111 27664 775254 4805   0 384 70% 11 36 97%
c -  2.75  7 16 32 112 28117 785789 5000   0 384 70% 11 36 97%
c -  2.79  7 16 32 113 29117 796372 5204   0 384 70% 11 36 97%
c }  2.81  7 16 33 113 29176 802150 8293   0 384 70% 11 36 97%
c [  2.81  7 15 33 113 29176 802150 8293   0 384 66% 11 36 97%
c B  2.81  7 15 33 113 29176 802150 8293   0 384 66% 11 36 97%
c v  2.82  7 15 33 113 29177 804296 9573   0 384 66% 11 36 97%
c
c  seconds   switched      conflicts     irredundant variables
c         MB   reductions        redundant      trail   remaining
c          level     restarts          binary       glue
c
c -  2.84  7 15 33 114 29178 807003 5223   0 384 66% 11 36 97%
c -  2.87  7 15 33 115 29182 817683 5639   0 384 66% 11 36 97%
c -  2.91  7 15 33 116 29186 828407 5999   0 384 66% 11 36 97%
c -  2.95  6 15 33 117 29189 839178 6558   0 384 66% 10 36 97%
c u  2.99  7 15 33 117 29190 849836 13033   0 384 67% 10 36 97%
c v  2.99  7 15 33 117 29190 849836 13033   0 384 67% 10 36 97%
c -  3.00  6 15 33 118 29190 849996 5642   0 384 67% 10 36 97%
c -  3.04  6 14 33 119 29195 860858 5874   0 384 67% 10 36 97%
c ]  3.07  7 14 34 119 29197 870623 12191   0 384 67% 10 36 97%
c {  3.07  7 16 34 119 29197 870623 12191   0 384 70% 11 36 97%
c -  3.07  7 16 34 120 29197 871768 5765   0 384 70% 11 36 97%
c -  3.12  7 16 34 121 29197 882723 6070   0 384 70% 11 36 97%
c -  3.16  6 16 34 122 29197 893725 6316   0 384 69% 11 36 97%
c u  3.17  7 16 34 122 29197 896758 8624   0 384 69% 11 36 97%
c v  3.18  7 16 34 122 29197 896758 8624   0 384 69% 11 36 97%
c -  3.23  6 15 34 123 29201 904770 6952   0 384 69% 11 36 97%
c -  3.30  6 15 34 124 29201 915862 7371   0 384 70% 11 36 97%
c -  3.37  7 15 34 125 29201 926998 8227   0 384 70% 10 36 97%
c -  3.42  7 15 34 126 29340 938179 8614   0 384 70% 10 36 97%
c }  3.42  7 15 35 126 29340 938770 9071   0 384 70% 10 36 97%
c
c  seconds   switched      conflicts     irredundant variables
c         MB   reductions        redundant      trail   remaining
c          level     restarts          binary       glue
c
c [  3.42  7 14 35 126 29340 938770 9071   0 384 67% 10 36 97%
c W  3.43  7 14 35 126 29340 938770 9071   0 384 67% 10 36 97%
c u  3.46  7 14 35 126 29343 945068 13244   0 384 67% 10 36 97%
c v  3.47  7 14 35 126 29343 945068 13244   0 384 67% 10 36 97%
c -  3.50  6 14 35 127 29345 949403 7600   0 384 66% 10 36 97%
c -  3.55  6 14 35 128 29349 960673 7015   0 384 66% 10 36 97%
c -  3.59  6 14 35 129 29353 971988 7187   0 384 66% 10 36 97%
c -  3.64  6 14 35 130 29355 983347 7358   0 384 66% 10 36 97%
c -  3.69  6 14 35 131 29361 994750 7213   0 384 66% 10 36 97%
c u  3.70  6 14 35 131 29361 994771 7234   0 384 66% 10 36 97%
c v  3.70  7 14 35 131 29361 994771 7234   0 384 66% 10 36 97%
c -  3.77  6 14 35 132 29367 1006195 7596   0 384 66% 10 36 97%
c ]  3.78  6 14 36 132 29368 1008855 9647   0 384 66% 10 36 97%
c {  3.78  6 15 36 132 29368 1008855 9647   0 384 70% 10 36 97%
c -  3.84  6 15 36 133 30383 1017685 7700   0 384 70% 10 36 97%
c -  3.91  6 15 36 134 32400 1029218 7170   0 384 70% 11 36 97%
c -  3.98  7 15 36 135 34081 1040793 6640   0 384 70% 11 36 97%
c u  4.01  7 15 36 135 34252 1045876 10665   0 384 70% 11 36 97%
c v  4.02  7 15 36 135 34252 1045876 10665   0 384 70% 11 36 97%
c -  4.07  6 15 36 136 35148 1052411 7279   0 384 70% 11 36 97%
c
c  seconds   switched       conflicts     irredundant variables
c         MB   reductions         redundant      trail   remaining
c          level     restarts           binary       glue
c
c -  4.14  6 16 36 137 36478 1064072 7523   0 384 70% 11 36 97%
c -  4.20  6 16 36 138 37305 1075778 7654   0 384 69% 11 36 97%
c }  4.25  6 16 37 138 38923 1084412 12837   0 384 69% 11 36 97%
c [  4.25  6 14 37 138 38923 1084412 12837   0 384 66% 10 36 97%
c O  4.25  6 14 37 138 38923 1084412 12837   0 384 66% 10 36 97%
c -  4.27  6 14 37 139 38925 1087526 7538   0 384 66% 10 36 97%
c u  4.33  7 14 37 139 38929 1098387 15982   0 384 66% 10 36 97%
c v  4.33  7 14 37 139 38929 1098387 15982   0 384 66% 10 36 97%
c -  4.35  6 14 37 140 38929 1099315 7743   0 384 66% 10 36 97%
c -  4.40  7 14 37 141 38935 1111149 8010   0 384 66% 10 36 97%
c -  4.45  7 14 37 142 38937 1123023 8819   0 384 66% 10 36 97%
c -  4.51  7 14 37 143 38940 1134940 9627   0 384 66% 10 36 97%
c -  4.56  7 14 37 144 38945 1146898 8489   0 384 65% 10 36 97%
c u  4.59  7 14 37 144 38948 1152315 12320   0 384 65% 10 36 97%
c v  4.60  7 14 37 144 38948 1152315 12320   0 384 65% 10 36 97%
c -  4.64  7 14 37 145 38951 1158899 8541   0 384 65% 10 36 97%
c B  4.68  7 14 37 145 38952 1168450 15888   0 384 65% 10 36 97%
c -  4.69  7 14 37 146 38952 1170941 8347   0 384 65% 10 36 97%
c ]  4.73  7 14 38 146 38953 1180443 15336   0 384 65% 10 36 97%
c {  4.73  7 16 38 146 38953 1180443 15336   0 384 69% 11 36 97%
c
c  seconds   switched       conflicts     irredundant variables
c         MB   reductions         redundant      trail   remaining
c          level     restarts           binary       glue
c
c -  4.76  7 16 38 147 38999 1183025 9136   0 384 69% 11 36 97%
c -  4.83  7 15 38 148 39024 1195149 10337   0 384 69% 11 36 97%
c -  4.90  7 15 38 149 39024 1207317 9327   0 384 68% 11 36 97%
c u  4.90  7 15 38 149 39024 1207662 9612   0 384 68% 11 36 97%
c v  4.91  7 15 38 149 39024 1207662 9612   0 384 68% 11 36 97%
c -  4.99  7 15 38 150 39042 1219524 9787   0 384 68% 11 36 97%
c -  5.07  7 14 38 151 39069 1231772 9475   0 384 67% 11 36 97%
c -  5.14  7 14 38 152 39069 1244061 10667   0 384 67% 10 36 97%
c -  5.22  8 14 38 153 39249 1256389 12386   1 384 67% 10 36 97%
c }  5.27  7 14 39 153 39280 1263777 18796   1 384 67% 10 36 97%
c [  5.27  7 14 39 153 39280 1263777 18796   1 384 65% 10 36 97%
c W  5.27  7 14 39 153 39280 1263777 18796   1 384 65% 10 36 97%
c u  5.28  7 14 39 153 39280 1264438 19185 184 384 65% 10 36 97%
c v  5.29  7 14 39 153 39280 1264438 18677 692 384 65% 10 36 97%
c t  5.30  8 14 39 153 39280 1264438 18677   1 384 65% 10 36 97%
c -  5.33  7 14 39 154 39282 1268758 11344   1 384 65% 10 36 97%
c -  5.39  7 14 39 155 39288 1281169 9946   1 384 65% 10 36 97%
c -  5.46  7 14 39 156 39293 1293619 9653   1 384 65% 10 36 97%
c -  5.52  7 14 39 157 39295 1306108 10110   1 384 65% 10 36 97%
c -  5.59  7 14 39 158 39301 1318638 11315   1 384 65% 10 36 97%
c
c  seconds   switched       conflicts      irredundant variables
c         MB   reductions          redundant      trail   remaining
c          level     restarts            binary       glue
c
c u  5.62  7 14 39 158 39303 1322692 14479   1 384 65% 10 36 97%
c v  5.63  7 14 39 158 39303 1322692 14419  61 384 65% 10 36 97%
c t  5.64  7 14 39 158 39303 1322692 14419   1 384 65% 10 36 97%
c -  5.70  7 14 39 159 39308 1331208 11456   1 384 65% 10 36 97%
c -  5.76  7 13 39 160 39309 1343817 11238   1 384 65% 10 36 97%
c ]  5.80  7 13 40 160 39310 1352448 18639   1 384 65% 10 36 97%
c {  5.80  7 14 40 160 39310 1352448 18639   1 384 67% 10 36 97%
c -  5.84  7 14 40 161 39369 1356470 11375   1 384 67% 10 36 97%
c -  5.92  7 13 40 162 39843 1369160 12606   1 384 67% 10 36 97%
c -  6.04  8 14 40 163 41375 1381889 13189   1 384 67% 10 36 97%
c u  6.06  8 14 40 163 41477 1382389 13571   1 384 67% 10 36 97%
c v  6.07  7 14 40 163 41477 1382389 13447 125 384 67% 10 36 97%
c t  6.08  7 14 40 163 41477 1382389 13447   1 384 67% 10 36 97%
c -  6.20  8 14 40 164 42947 1394656 13099   1 384 67% 10 36 97%
c -  6.31  8 14 40 165 43621 1407465 12458   1 384 67% 10 36 97%
c -  6.41  8 14 40 166 44221 1420310 12682   1 384 66% 10 36 97%
c -  6.52  8 14 40 167 45137 1433195 13415   1 384 66% 10 36 97%
c u  6.60  8 13 40 167 45137 1443528 23166   1 384 66% 10 36 97%
c v  6.62  8 13 40 167 45137 1443528 23075  92 384 66% 10 36 97%
c t  6.64  8 13 40 167 45137 1443528 23075   1 384 66% 10 36 97%
c
c  seconds   switched       conflicts      irredundant variables
c         MB   reductions          redundant      trail   remaining
c          level     restarts            binary       glue
c
c }  6.64  8 13 41 167 45144 1443921 23435   1 384 66% 10 36 97%
c [  6.64  8 13 41 167 45144 1443921 23435   1 384 65% 10 36 97%
c I  6.64  8 13 41 167 45144 1443921 23435   1 384 65% 10 36 97%
c -  6.66  8 13 41 168 45145 1446118 14729   1 384 65% 10 36 97%
c -  6.75  8 13 41 169 45151 1459079 15097   1 384 64% 10 36 97%
c -  6.85  8 13 41 170 45158 1472079 13839   1 384 64% 10 36 97%
c -  6.94  8 13 41 171 45162 1485117 13120   1 384 64% 10 36 97%
c -  7.03  8 13 41 172 45169 1498193 13375   1 384 64% 10 36 97%
c u  7.09  8 13 41 172 45172 1506117 20690   1 384 64% 10 36 97%
c v  7.10  8 13 41 172 45172 1506117 20638  53 384 64% 10 36 97%
c t  7.11  8 13 41 172 45172 1506117 20638   1 384 64% 10 36 97%
c -  7.16  8 13 41 173 45173 1511308 13129   1 384 64% 10 36 97%
c -  7.25  8 12 41 174 45174 1524461 13646   1 384 63% 10 36 97%
c -  7.35  8 12 41 175 45177 1537652 14418   1 384 63% 9 36 97%
c ]  7.40  8 12 42 175 45181 1544914 21193   1 384 63% 9 36 97%
c {  7.40  8 13 42 175 45181 1544914 21193   1 384 66% 10 36 97%
c -  7.45  8 13 42 176 45181 1550881 15709   1 384 66% 10 36 97%
c -  7.57  8 13 42 177 45411 1564148 17633   2 384 66% 10 36 97%
c u  7.62  8 13 42 177 45411 1570163 23057 104 384 65% 10 36 97%
c v  7.63  8 13 42 177 45411 1570163 22574 587 384 65% 10 36 97%
c
c  seconds   switched       conflicts      irredundant variables
c         MB   reductions          redundant      trail   remaining
c          level     restarts            binary       glue
c
c w  7.64  8 13 42 177 45411 1570163 22574 595 376 65% 10 36 97%
c t  7.65  8 13 42 177 45411 1570163 22574   2 376 65% 10 36 97%
c -  7.72  9 12 42 178 45569 1577453 19597   2 376 65% 9 36 97%
c -  7.85  9 12 42 179 46047 1590795 19284   3 376 65% 9 36 97%
c -  7.97  9 12 42 180 46426 1604175 18970   3 376 65% 9 36 97%
c -  8.11  9 12 42 181 46739 1617593 20130   5 376 64% 9 36 97%
c i  8.16  8 11 42 181 46739 1622646 25121  16 376 64% 9 35 95%
c -  8.26  9 11 42 182 46888 1631047 13968   7 376 64% 9 35 95%
c i  8.27  8 11 42 182 46888 1632170 15060  18 376 64% 9 34 92%
c u  8.31  8 11 42 182 46896 1635280 12646 134 320 64% 9 34 92%
c v  8.33  8 11 42 182 46896 1635280 12570 210 320 64% 9 34 92%
c w  8.33  8 11 42 182 46896 1635280 12570 218 312 64% 9 34 92%
c t  8.35  8 11 42 182 46896 1635280 12570  18 312 64% 9 34 92%
c i  8.37  8 11 42 182 46905 1638331 15472  31 312 64% 9 33 89%
c i  8.39  8 11 42 182 46913 1640597 17653  43 312 64% 9 29 78%
c i  8.40  8 11 42 182 46913 1642174 18966  50 312 64% 8 28 76%
c i  8.41  8 11 42 182 46913 1642417 19115  54 312 64% 8 27 73%
c i  8.41  8 11 42 182 46913 1642418 19115  54 312 64% 8 26 70%
c i  8.41  8 11 42 182 46913 1642492 19163  57 312 64% 8 25 68%
c i  8.41  8 11 42 182 46913 1642529 19182  58 312 64% 8 23 62%
c
c  seconds   switched       conflicts      irredundant variables
c         MB   reductions          redundant      trail  remaining
c          level     restarts            binary      glue
c
c }  8.41  8 11 42 182 46913 1642532 19182  59 312 64% 8 12 32%
c 0  8.41  8 11 42 182 46913 1642532 19182  59 312 64% 8 12 32%
c
c ---- [ result ] ------------------------------------------------------------
c
s UNSATISFIABLE
c
c ---- [ profiling ] ---------------------------------------------------------
c
c           7.55   89.76 %  search
c           4.31   51.22 %  focused
c           3.24   38.53 %  stable
c           0.86   10.24 %  simplify
c           0.83    9.93 %  probe
c           0.53    6.36 %  vivify
c           0.25    2.97 %  sweep
c           0.17    2.06 %  reduce
c           0.05    0.54 %  substitute
c           0.02    0.21 %  walking
c           0.01    0.10 %  eliminate
c           0.00    0.06 %  transitive
c           0.00    0.01 %  parse
c           0.00    0.00 %  backbone
c           0.00    0.00 %  subsume
c           0.00    0.00 %  warmup
c =============================================
c           8.41  100.00 %  total
c
c ---- [ statistics ] --------------------------------------------------------
c
c conflicts:                          1642532           195377.22 per second
c decisions:                          2502946                1.52 per conflict
c jumped_reasons:                           9                0 %  propagations
c propagations:                       6261391           744785    per second
c queue_decisions:                    1663111               66 %  decision
c random_decisions:                     39007                2 %  decision
c random_sequences:                       296             5549    interval
c reductions:                             182             9025    interval
c rephased:                                27            60835    interval
c restarts:                             46913               35.01 interval
c score_decisions:                     800828               32 %  decision
c strengthened:                            16                0 %  checks
c switched:                                42            39108    interval
c vivified:                              6905                7 %  checks
c vivify_checks:                        92807             1687    per vivify
c vivify_units:                             0                0 %  variables
c walk_improved:                            8               89 %  walks
c walks:                                    9           182504    interval
c
c ---- [ resources ] ---------------------------------------------------------
c
c maximum-resident-set-size:          9322496 bytes          9 MB
c process-time:                             8s               8.41 seconds
c
c ---- [ shutting down ] -----------------------------------------------------
c
c exit 20
